(set-logic ALL)
(declare-const url String)
(declare-const allowed_hosts String)
(declare-const require_https Bool)
(assert (not (= url "")))
(assert (not (< (str.len url) 0)))
(assert (not (str.prefixof "///" url)))
(assert (not (< (str.len url) 0)))
(assert (not (> (+ 0 (str.indexof url ":" 0)) 0)))
(assert (= url "//"))
(assert (not (< (str.len url) 0)))
(assert (not (>= (+ 2 (str.indexof (str.substr url 2 (- (str.len url) 2)) "/" 0)) 0)))
(assert (not (< (str.len url) 0)))
(assert (not (>= (+ 2 (str.indexof (str.substr url 2 (- (str.len url) 2)) "?" 0)) 0)))
(assert (not (< (str.len url) 0)))
(assert (not (>= (+ 2 (str.indexof (str.substr url 2 (- (str.len url) 2)) "#" 0)) 0)))
(assert (not (< (str.len url) 0)))
(assert (not (< (str.len url) 0)))
(assert (not (< (str.len url) 0)))
(assert (not (str.contains (str.substr url 2 (- (str.len url) 2)) "[")))
(assert (not (str.contains (str.substr url 2 (- (str.len url) 2)) "]")))
(assert (not (str.contains (str.substr url (str.len url) (- (str.len url) (str.len url))) "#")))
(assert (not (str.contains (str.substr url (str.len url) (- (str.len url) (str.len url))) "?")))
(assert (not (str.contains (str.substr url (str.len url) (- (str.len url) (str.len url))) ";")))
(assert (not (not (= (str.substr url 2 (- (str.len url) 2)) ""))))
(assert (not (not (= (str.substr url 2 (- (str.len url) 2)) ""))))
(assert (not require_https))
(assert (not (not (= (str.substr url 2 (- (str.len url) 2)) ""))))
(assert (< (str.len url) 0))
(check-sat)
(get-value (url))
(get-value (allowed_hosts))
(get-value (require_https))
